[[34, 35, 36, 22, 32, 49, 39, 40, 43, 33, 10, 9, 8, 41, 19, 45, 3, 18, 31, 17, 21, 42, 7, 2, 30, 23], [20, 50, 16, 29, 47, 26, 28, 27, 13, 14, 52, 11, 51, 12, 25, 4, 6, 15, 5, 24, 48, 38, 37, 46, 44]]